myproject/instances/20nodes/rnd45_20.tsp
NAME : rnd45_20.tsp
TYPE : TSP
DIMENSION : 20
EDGE_WEIGHT_TYPE : EUC_2D
NODE_COORD_SECTION
1 650 800
2 553 842
3 622 544
4 986 870
5 637 164
6 542 865
7 562 825
8 401 797
9 876 728
10 882 848
11 238 64
12 822 952
13 883 640
14 247 185
15 108 424
16 81 305
17 87 675
18 609 649
19 783 806
20 408 202
