myproject/instances/20nodes/rnd45_20.opt.tour
NAME : rnd45_20.tsp.tsp.opt.tour
TYPE : TOUR
DIMENSION : 20
TOUR_SECTION
1
7
2
6
8
17
15
16
14
11
20
5
3
18
13
9
4
10
12
19
-1